letting maxWeight=100
letting values=[67, 60, 8, 8, 68, 10, 31, 74, 47, 66, 68, 36, 72, 26, 8, 10, 42, 39, 3, 26, 7, 14, 37, 59, 48, 61, 41, 8, 35, 37, 31, 39, 8, 46, 34, 27, 71, 71, 34, 69, 63, 16, 10, 72, 56, 71, 71, 65, 42, 59, 45, 4, 74, 3, 29, 32, 32, 35, 20, 60, 26, 42, 61, 37, 23, 74, 65, 8, 70, 70, 60, 34, 48, 34, 20, 37, 60, 12, 74]
letting weights=[27, 33, 1, 10, 26, 17, 17, 25, 9, 32, 25, 31, 25, 35, 9, 34, 9, 15, 31, 31, 16, 36, 10, 2, 21, 23, 17, 5, 15, 10, 17, 35, 4, 5, 23, 27, 13, 29, 18, 17, 27, 17, 18, 9, 23, 12, 12, 17, 15, 17, 2, 23, 16, 13, 31, 24, 29, 11, 17, 28, 33, 1, 24, 21, 2, 30, 13, 7, 7, 8, 17, 12, 13, 17, 23, 15, 15, 29, 6]
